8
0,857,436,282,153,523,478,157
857,0,988,478,193,634,479,313
436,988,0,234,735,231,926,679
282,478,234,0,138,906,817,248
153,193,735,138,0,766,584,649
523,634,231,906,766,0,997,764
478,479,926,817,584,997,0,375
157,313,679,248,649,764,375,0
3
7